 %block lattice_cart
   137.793   0.000   0.000
   0.000 143.498   0.000
   0.000   0.000   162.326
 %endblock lattice_cart

 %block positions_abs
N      86.24891186      39.91561540      77.99676357
H      87.75502374      39.58491329      76.87048668
H      84.65020340      39.66995097      76.98198054
H      86.21111734      38.44729806      79.21563704
C      86.32639065      42.20218424      79.59547203
H      87.81360525      41.96974789      80.99953868
C      86.72134345      44.63426200      77.97975603
H      86.75913797      46.24619854      79.25721102
H      85.23790830      44.87614697      76.57190993
C      89.13830340      45.05567097      76.47742361
H      88.98145611      46.90004385      75.57224471
H      89.20066438      43.64026596      74.98265010
S      92.18265249      44.94417712      77.98731493
C      94.14229868      46.55233420      75.90294681
H      96.05848116      46.50509105      76.66072706
H      93.56026298      48.52520847      75.79523241
H      94.09694525      45.73030327      74.01322050
C      83.76959095      42.46107674      81.05056129
O      81.73246599      42.44973839      79.96963784
N      84.09462387      42.89949325      83.54311029
H      85.93143785      42.92594941      84.06089530
C      82.30505306      43.59869199      85.45173387
H      80.55705621      42.50831989      85.47441059
C      83.46156555      43.11303231      88.02932056
H      85.33806379      43.95773999      88.11057879
H      83.62408203      41.07023818      88.25608772
C      82.13497768      44.39237703      90.27809487
O      79.88998283      44.84402162      90.43683188
N      83.51636762      44.59646747      92.38136026
H      82.53182022      44.60402638      94.01597352
H      85.36451995      44.14293315      92.50608220
C      81.31105701      46.27265472      84.99253038
O      82.72835174      48.15671185      85.13425985
N      78.95456831      46.65815888      84.45962756
H      77.96057226      45.02732507      84.51253989
C      77.66766469      49.14881816      84.13459463
H      78.44245248      49.92738540      82.39415670
C      74.82929576      48.53276738      83.82845897
H      74.83496493      47.15704662      82.29778065
C      73.37798595      47.79766385      86.27187509
H      71.53172334      46.95673564      85.91471682
H      73.15121880      49.65715454      87.12981084
H      74.33040801      46.33690540      87.36791635
C      73.38176541      50.65493003      82.41494369
H      73.62742983      52.46339812      83.37114520
H      71.35030961      50.32233820      82.50376082
C      74.05261824      51.02153694      79.68995834
H      74.31151076      49.26598119      78.64493969
H      75.91021922      51.91159803      79.70129670
H      72.72225092      52.42749331      78.97942125
C      78.03805103      51.34090068      86.17549905
O      78.24781065      53.59156472      85.55377909
N      78.22702367      50.61146632      88.62647408
H      77.81506333      48.81244687      89.11213374
C      78.96590665      52.34623509      90.61068671
H      77.74514347      53.99974561      90.73162919
C      77.99836679      51.20861985      93.17504531
H      78.49347509      52.61079677      94.59989895
H      78.95078885      49.38314422      93.21661929
C      75.17889512      50.78343143      93.24496519
C      73.69923943      52.87157899      94.01408380
H      74.59119025      54.61768611      94.58100169
C      71.08574794      52.82811530      93.79676527
H      70.13710532      54.62902447      93.92337693
C      69.89899980      50.51698002      93.06355146
H      67.88644128      50.44706014      92.73095963
C      71.42589867      48.37592010      92.55143563
H      70.47158688      46.60146710      92.22451298
C      74.02616208      48.45717833      92.71962127
H      75.16566704      46.79610890      92.38513971
C      81.83262147      53.21550919      90.59178944
O      82.61496816      54.80854847      92.16593146
N      83.46534501      52.14403436      89.00252961
H      82.71701340      50.79854923      87.87436300
C      86.19033035      52.75441596      88.75875492
H      86.72134345      54.36257306      89.93416469
C      87.78903881      50.40737588      89.55810915
H      87.66998606      49.13747980      87.94050343
H      87.12385516      49.61558057      91.34012106
C      90.62362828      51.10468489      89.77164822
H      91.22267153      51.93238503      87.98396713
H      91.66864693      49.33968052      89.98140784
C      91.08283177      52.71284198      92.11301912
O      92.42642718      54.62902447      91.88436224
O      90.14363780      52.12702683      94.11234956
C      86.78181469      53.40259210      85.89770928
O      88.15564571      55.18271427      85.55188937
N      85.35129187      52.42938304      84.12136655
H      84.27414788      50.93649926      84.62592347
C      85.79537755      53.17015575      81.44551409
H      87.72478811      52.78087213      80.84080167
C      84.02659372      51.54499112      79.82412891
H      82.09907288      51.47696098      80.54222491
H      84.60862943      49.57778604      80.01310154
C      83.80360602      52.16860081      77.06701822
H      85.59506656      51.56388839      76.25065645
H      83.57494913      54.20572577      76.86859696
S      81.50002965      50.11824776      75.60814951
C      81.90443107      50.53776700      72.27845174
H      80.87830969      49.09590583      71.22587419
H      83.89053344      50.15037310      71.90995511
H      81.39231524      52.48040565      71.82680715
C      85.42121174      55.90081027      80.81434550
O      86.79693249      56.92126248      79.23075485
N      83.52770598      56.96850564      82.02377034
H      82.57339419      55.86868494      83.25965135
C      82.64709351      59.64624783      81.81023127
H      82.95322917      60.12812804      79.82979809
C      79.89187255      60.06387734      82.50565055
H      79.37408755      62.04997970      82.34313409
H      79.99202805      59.48184165      84.47663509
C      77.90577020      58.25162982      81.25654146
H      78.19678805      56.29954254      81.84235661
C      75.25637391      58.99807171      82.11636693
H      73.86553535      58.47272779      80.68962356
H      74.92189235      61.01818914      82.34691354
H      74.77638343      58.34044694      84.00798297
C      78.30828191      58.52941958      78.44273898
H      78.11930928      60.52686029      77.97408685
H      76.67555837      57.64124822      77.55645734
H      80.06005820      57.68849137      77.76432723
C      84.37052392      61.68148308      83.18595202
O      84.30438349      63.95104437      82.68139510
N      86.15253583      60.90102610      84.83001391
H      86.14686664      58.99807171      84.98875092
C      87.98746008      62.60933868      86.21518330
H      86.95944897      64.05875878      87.26020195
C      89.46333633      60.93315146      88.02554111
H      91.19810509      60.28875478      87.12414166
H      88.17454298      59.45538547      88.65670970
C      90.07371793      62.44493250      90.52564902
H      88.41075878      62.70571474      91.71239715
H      90.88441051      64.21749578      89.85479618
C      92.16753468      61.41881111      92.25096915
H      92.69287859      62.93248189      93.54732140
H      93.79836848      60.79142197      91.15870734
N      91.23212015      59.21916968      93.70038923
H      91.78014078      57.58644616      92.87457883
C      89.48979249      59.05098404      95.63357925
N      88.87185199      61.05409393      96.91481369
H      87.54148466      61.09755764      98.28108581
H      89.87718639      62.66603047      96.72395133
N      88.64697456      56.90803440      96.50852253
H      87.90998129      56.88913714      98.26974745
H      89.12318559      55.36412800      95.49373950
C      89.81482543      64.08332522      84.52198852
O      90.50646525      66.19225977      85.25520233
N      90.58205430      62.98161477      82.38659779
H      89.71466993      61.35078096      81.90282786
C      92.02013602      64.53874925      80.50820984
H      93.23334033      65.78785835      81.61181000
C      93.65663901      62.94570997      78.77722053
H      94.61661998      64.31954100      77.57913405
C      95.65596945      61.80998445      80.53088655
H      96.60272234      63.26507372      81.64015590
H      97.23389092      61.00874050      79.47452954
H      94.69787822      60.37001301      81.64771480
C      92.48500870      60.82543705      77.25410113
H      91.34739347      59.44404712      78.27644306
H      94.03836373      59.77474922      76.40183456
C      90.75401940      61.78919747      74.98076037
H      90.55181869      60.30954176      73.56157591
H      91.54581472      63.52774567      74.20975203
H      88.90586706      62.38257153      75.67240020
C      90.42709675      66.33587897      78.89816302
O      91.51935855      67.90057236      77.56023679
N      87.86651760      66.32454062      79.15516580
H      87.11629625      65.13212332      80.44206942
C      86.26780913      67.87600592      77.49598609
H      87.21267228      67.91380046      75.66484130
C      83.74880395      66.63256601      77.21441687
H      82.91354492      66.53996942      79.09658428
H      83.98124029      64.72961161      76.46608525
C      82.01214548      67.87033674      75.14138711
O      79.84084995      68.37111421      75.82357831
O      82.91354492      67.97427169      72.94174568
C      86.04671115      70.67469059      78.26699443
O      85.51569806      72.20725863      76.65694761
N      86.51725300      71.38522768      80.58757834
H      87.18054695      70.11155215      81.84424634
C      86.38497216      73.93068904      81.42283737
H      87.36196066      75.06641455      80.00932209
C      83.61274367      74.73193299      81.82534908
H      82.65087296      73.45447800      83.12548078
H      82.58473255      74.32564183      80.08869059
C      83.08928947      77.55140464      82.42628204
H      83.72990670      77.93123963      84.34624398
H      81.05216451      77.77061289      82.21463270
C      84.42532597      79.33152683      80.54789409
O      86.80827085      79.42034397      80.37970845
O      83.14220181      80.71102704      79.21374731
C      87.99501899      74.16123564      83.73586238
O      88.25580121      72.29607577      85.22685644
N      89.56349182      76.11521264      83.96640899
H      89.68065486      77.45880805      82.61525468
C      91.29448113      76.48937845      86.13581480
H      92.64752516      77.98604169      85.72007501
H      92.33761004      74.72248435      86.30589016
C      89.84884049      77.20180527      88.58490010
O      87.87596622      78.60965138      88.53009803
N      90.90708724      76.71992506      90.88280729
H      92.48122925      75.64467079      90.96784498
C      89.48979249      76.97314839      93.29409807
H      87.52825659      76.68779972      92.73284935
C      90.21544740      74.87555218      95.23295727
H      92.22233675      75.08531180      95.65436623
H      89.75435418      73.04440739      94.41281605
C      88.96822804      74.99271521      97.86912547
H      87.10684761      75.87332768      97.89747137
C      88.75657868      72.28851686      99.06721196
H      87.90998129      72.62866760     100.91347456
H      90.63496664      71.50050099      99.37334762
H      87.73234702      70.94114200      97.89369192
C      90.51780361      76.45536338      99.72105726
H      92.36595594      75.62955298     100.10845115
H      89.71466993      76.44402502     101.61645275
H      90.65197417      78.40367121      99.06721196
C      90.00379806      79.60931660      94.44494139
O      92.05415110      80.11198380      95.28775933
N      87.94399638      81.14755382      94.56210443
H      86.39442080      80.43512700      93.70794813
C      87.97045255      83.69112543      95.83577996
H      89.93765763      84.26938168      96.01908341
C      86.37363380      85.49392434      94.27108657
H      86.00513717      87.10775062      95.49940868
H      84.59729107      84.54717145      93.83644952
C      87.37140930      86.70145945      91.92026704
H      89.15909039      87.68600686      92.19427736
H      86.15631527      88.28882955      91.43082793
C      87.74935457      84.93456535      89.68850026
H      86.06938787      83.75915558      89.47307147
H      89.41420344      83.73836859      89.88692153
N      87.81360525      86.31973473      87.22429715
H      87.55471275      88.21135077      87.22996633
C      87.33550450      85.14810442      85.07945779
N      87.48101342      82.72925474      84.65993855
H      87.33172504      82.16800602      82.84202183
H      87.77959018      81.30251137      85.89015038
N      86.94055170      86.65610602      83.17461366
H      86.81394004      86.15910800      81.33590996
H      86.63441603      88.51748644      83.47319042
C      86.89897773      83.66088981      98.56454476
O      84.77492534      82.78783626      98.90469549
N      88.14808681      85.04605920     100.29175461
H      89.56538155      86.06651141      99.52452572
C      87.62085318      85.19723730     103.04697557
H      86.63819549      83.45679937     103.54964277
C      90.19277068      85.15755305     104.52285182
H      90.04915149      85.80006000     106.47493910
H      91.52502774      86.28382993     103.43247974
C      91.36440100      82.46847251     104.58143334
H      91.51557911      81.60108813     102.71627347
C      94.03269456      82.66878350     105.78518900
H      94.00056921      82.45713415     107.83176260
H      94.97755771      84.38654472     105.14835123
H      95.23833995      81.26282712     104.88378955
C      89.92820900      80.75449074     106.17258289
H      89.43121099      81.48203537     108.03585304
H      91.03936807      79.04239870     106.44659321
H      88.22178614      80.19135230     105.16724849
C      86.06938787      87.42333490     104.04286134
O      84.99413359      87.22491365     106.11589110
N      85.62530219      89.43778315     102.60666934
H      86.88574963      89.60029961     101.17992597
C      83.74502451      91.39931907     103.20571258
H      82.64709351      90.89665186     104.87623064
C      85.05460483      93.86163245     104.13545793
H      86.64953385      93.19455906     105.25228618
H      83.71856833      94.73279628     105.43936908
C      85.92198921      95.76080740     102.08321515
H      84.46878968      96.20489308     100.69426631
H      87.59628674      94.86885657     101.28008147
C      86.77236605      98.31004819     103.25106601
H      85.26814391      98.91287088     104.52474155
H      86.83661675      99.65931278     101.69771098
C      89.36507055      97.75446865     104.54363881
H      90.89952833      97.13463842     103.32098589
H      88.98523557      96.22945952     105.87778559
N      90.12285081     100.06749367     105.87211641
H      91.56282226      99.68198949     107.06453371
H      88.57516496     100.81204583     106.70926517
H      90.53859059     101.19566027     104.38868125
C      81.89309271      91.70734445     101.03252732
O      82.35607566      91.01192517      98.80454000
N      79.71801773      92.82606243     101.70715962
H      79.33629301      93.16054399     103.54775304
C      77.74136401      93.64053447      99.77774905
H      76.81161866      91.99080340      98.96327701
C      75.73447466      95.44522310     100.95693827
H      76.60752823      97.03448293     101.93581650
C      74.10553058      96.48268285      98.73650985
H      72.72225092      97.80927072      99.49240038
H      73.45735446      94.87641548      97.62535078
H      75.21668966      97.76013783      97.56487954
C      74.08852304      94.06761262     102.89201801
H      75.27527116      93.19266933     104.33198946
H      73.34208115      92.41410209     101.91502951
C      72.27438578      95.58506285     104.46993949
H      73.33830169      97.05715964     105.43747936
H      71.49014937      94.35674074     105.92691847
H      70.95724655      96.63197123     103.28130163
C      79.12653339      95.08428537      97.64802750
O      80.38320139      96.98346032      98.06565701
N      78.93189158      94.31327704      95.27453125
H      77.79049689      92.84495970      94.84934283
C      79.71801773      95.79860192      92.88591719
H      80.54004868      97.61840836      93.39803302
C      81.88931326      94.50224967      91.40059230
H      83.48802173      94.14698112      92.64970140
H      82.51670240      95.78159438      89.91337770
C      81.34318236      91.86230201      90.18171883
C      81.48113238      91.49569511      87.48696911
H      81.69845090      93.08117548      86.22085248
C      81.26570359      89.02015364      86.59690802
H      81.58695705      88.66299537      84.61269539
C      81.13909191      86.90932934      88.16916031
O      80.94822956      84.57929680      87.27909922
H      81.10129739      84.41111116      85.48196949
C      80.81027954      87.34774585      90.76942372
H      80.35674522      85.70179423      91.88814169
C      81.16365837      89.76848526      91.82011155
H      81.17877617      89.91021473      93.85534678
C      77.43333861      96.27292322      91.16059706
O      75.54172257      95.01814495      91.32878270
N      77.66010578      97.96044883      89.25953239
H      79.01692926      99.26247025      89.57511669
C      75.94423428      98.13997283      87.05233206
H      74.17734018      97.38786175      87.79877395
C      75.36030885     100.91220132      86.47218608
H      74.41166624     100.97645203      84.64293101
H      77.27082215     101.63029733      86.20195522
C      73.85797644     102.17264877      88.70584258
H      74.91244371     102.08950082      90.47273668
H      72.00982411     101.27880823      88.88347686
C      73.25515375     104.91086221      88.00475412
H      71.91722752     104.71433066      86.45328882
H      75.02204785     105.82548974      87.47185130
C      72.06840561     106.29036241      90.33100721
H      73.39121403     106.48122477      91.89948005
H      70.30340125     105.31715336      90.75808536
N      71.36542743     108.82070595      89.55621942
H      69.86309500     108.61850524      88.39781719
H      72.86587012     109.82415062      88.92883029
H      70.74748693     109.93186502      90.97729361
C      76.53571862      96.53181573      84.65804882
O      78.66544017      96.52614655      83.74720074
N      74.55150599      95.15420525      83.93239392
H      73.00382014      95.63608546      84.93961804
C      74.28505459      93.82194820      81.44740381
H      75.93856511      92.61630281      81.20362912
C      71.75660078      92.37441784      81.45307299
H      70.27316561      93.80116121      81.45118327
H      71.66400419      91.23113342      83.16138558
C      71.53739253      90.53004496      79.17595279
O      73.22869758      88.77259949      79.09847401
O      70.01805257      90.88909296      77.44307376
C      74.36820253      95.75891767      79.33280007
O      73.53105379      98.01525089      79.73342205
N      75.08251909      94.97657097      77.01977506
H      76.23714187      93.45912074      76.94229628
C      74.88220810      96.39575544      74.70486033
H      75.91588838      98.17776736      74.75777267
C      75.89510140      94.82917232      72.38427642
H      74.88220810      93.03960150      72.25010585
C      76.05194868      96.14631156      69.86338152
H      76.58296178      94.88397438      68.32514430
H      77.35774957      97.69210769      69.47409789
H      74.18300937      96.94944524      69.54023832
O      78.55583605      94.41343253      72.83592101
H      79.04338544      92.91676929      71.93074210
C      72.10242070      97.20833775      74.07936092
O      71.76038023      99.38719219      73.43307452
N      70.22403274      95.64742382      74.68785279
H      70.71347185      93.93344206      75.37193372
C      67.44802479      95.94978003      74.65761717
H      67.28550832      97.39920011      73.20252791
C      66.01750197      93.59518104      73.85070404
H      65.71514576      92.51614731      75.57791389
H      67.47637067      92.42544046      72.98520938
C      63.78762491      93.86730163      72.18396543
H      62.54796445      95.39420049      72.79812648
H      62.69725284      92.12308424      72.10837637
C      64.61910449      94.34540239      69.42496501
O      66.28773283      95.83450672      68.74088409
O      63.23393511      93.26447893      67.74310859
C      66.30474037      97.08550554      77.09158466
O      64.13155510      96.49969038      77.80779093
N      67.82408032      98.60862495      78.38037801
H      69.60987169      98.69744208      77.70952517
C      67.16834529     100.60795539      80.11703649
H      65.57530601     101.78714461      79.55578777
H      68.94846748     101.63218705      80.27766323
C      66.53339725      99.45333261      82.69840263
O      66.29907119     100.87062734      84.57490086
N      66.52961780      96.90031236      82.99131021
H      66.66378836      95.74191013      81.48141889
C      65.77939645      95.58506285      85.32323248
H      64.12210647      96.44488832      86.19250659
C      64.82886412      92.89031312      84.63915156
H      64.01439207      92.04371575      86.33045661
H      66.36521160      91.74135954      83.89081994
C      62.81630558      92.81472408      82.58123960
C      62.94669671      90.90987995      80.68962356
H      64.53217709      89.62864551      80.59513725
C      60.86610803      90.70956896      78.89438356
H      60.88878474      89.30550231      77.40905868
C      58.66835633      92.28371098      79.03989249
O      56.80886563      91.95867805      77.27299839
H      55.20070854      92.65976651      77.73598134
C      58.65512825      94.13753249      80.92394963
H      57.02051498      95.35829569      80.94662634
C      60.74327582      94.54760310      82.54911425
H      60.48438331      95.84206563      84.10813846
C      67.90722827      95.43010529      87.25453277
O      70.13332587      95.30916281      86.55344431
N      67.34031038      95.43199502      89.71117698
H      65.52806284      95.48301763      90.31022022
C      69.13366065      94.69311203      91.69916906
H      70.80228898      95.80238137      91.22673748
C      68.42879274      95.49246626      94.38635988
H      69.79128540      94.67610449      95.69782994
H      66.62977328      94.77248053      95.08555861
C      68.35320368      98.41020368      94.54320716
C      65.98159716      99.57049564      94.81721748
H      64.20147497      98.57838933      94.72273116
C      65.82286016     102.17831795      94.97406476
H      64.03706879     103.14963728      95.15736821
C      68.18690777     103.52569281      94.94004969
O      68.10942900     106.08060279      94.87579899
H      66.42001366     106.72688919      94.71328253
C      70.60575746     102.36540086      94.83422502
H      72.16100220     103.67687092      94.98162367
C      70.58497046      99.73112238      94.71139280
H      72.35186456      98.70878044      94.72840034
C      69.68924018      91.82261776      91.55932931
O      67.95069198      90.29193944      91.74263277
N      72.06651590      91.07050669      91.61980056
H      73.32318388      92.48024252      91.89003142
C      73.01515850      88.47591246      91.54610123
H      71.42967813      87.16255268      91.57255740
C      74.47591693      88.23402749      89.11780292
H      76.26170830      89.25070025      89.23496595
C      75.22235883      85.46368871      88.51875968
H      76.01604388      85.33896678      86.62147446
H      73.47814145      84.38654472      88.31844869
H      76.27682612      84.55662008      90.03809963
O      73.34397087      89.16944201      86.87091833
H      73.34964006      90.98357927      86.92572040
C      74.78772179      88.16221789      93.76086047
O      75.75526165      89.99525241      94.82099693
N      75.06929100      85.76793465      94.61690649
H      73.94301412      84.52071528      93.71361731
C      76.98736321      84.92889617      96.46505882
H      78.57851276      86.20446143      96.16459234
C      75.83651989      85.21424484      99.18059553
H      75.08629853      87.12475814      99.34878118
C      73.77104902      83.13932535      99.60389423
H      72.33296731      83.26782674      98.13557688
H      72.84886259      83.33396716     101.43503903
H      74.47780667      81.20613533      99.53019490
C      78.02860240      84.99503659     101.23283831
H      79.48747112      86.36886762     100.76418619
H      78.90921486      83.13554591     101.31976572
C      77.06484198      85.59219011     104.01451544
H      76.21257543      83.88765697     104.79686214
H      75.74014385      87.17011159     103.96916201
H      78.61063812      86.22335869     105.22394028
C      77.86797567      82.20391082      95.76397036
O      76.70957344      80.90377912      94.25218931
N      79.96935133      81.42723331      96.77686366
H      80.94822956      82.66122459      97.85211794
C      80.81594871      78.77405758      96.61245748
H      79.27771150      77.46069778      97.00741027
H      82.36363457      78.56240822      97.95605288
C      81.85718791      77.93879854      93.92715638
O      82.67165995      79.46380767      92.40592670
N      81.45467622      75.54262557      93.18449394
H      80.51548224      74.36910553      94.36179344
C      81.76837079      74.46737131      90.65226068
H      83.36329979      75.47837488      89.83400919
C      82.26536881      71.55908250      90.61257643
H      80.91610421      70.39690082      91.64814645
C      82.66410106      70.42335699      88.06900481
H      81.25058577      71.08665093      86.72540941
H      82.76047709      68.36733476      88.07278427
H      84.43666433      70.88445021      87.12603138
C      84.75791781      71.49294208      92.13758557
H      84.74657945      72.66835185      93.82889062
H      86.17332282      72.39623126      90.94327854
C      85.99946800      68.98905472      92.93882952
H      85.89553305      67.75695316      91.29287790
H      84.99035414      68.16702377      94.53753798
H      87.92698884      69.53140618      93.42448919
C      79.57817798      75.32530705      88.97040427
O      78.03805103      73.78706983      88.26364662
N      79.19645327      77.77061289      88.39025829
H      80.54193840      78.94602267      89.06111113
C      77.23113790      78.91389731      86.75186557
H      77.39554409      78.27516982      84.79977829
H      77.48247151      80.93401474      86.43439155
C      74.48158611      78.63232809      87.63436776
O      72.79028106      78.71358632      86.06967438
N      73.98269838      78.50571643      90.14581403
H      75.45479517      78.90444868      91.29476763
C      71.34653016      78.35075887      91.13981007
H      70.31851905      76.88433125      90.12313732
C      71.55817952      77.41345462      93.91392830
H      72.73358927      78.83452881      94.83233529
H      72.34619538      75.51805913      93.73629403
C      68.97492364      77.24526898      95.34823057
N      67.07574870      75.38388856      95.05910245
H      67.08708705      73.90423286      93.84967761
C      65.35609776      75.72592902      96.91292396
H      63.40401047      75.14011387      96.81087874
N      66.01561223      77.84998140      98.13935634
H      64.92146071      78.61343083      99.50373873
C      68.48737425      78.68146098      97.33622265
H      69.55129016      80.28394889      98.01463440
C      70.07285462      80.97180927      91.20406077
O      71.21424932      82.71791638      92.16971091
N      67.77683715      81.21369424      90.20628527
H      67.18346310      79.77750224      89.09512620
C      66.21214378      83.52105006      90.42171407
H      67.24960351      85.25392909      90.01920237
C      63.96525919      83.45301992      88.52631858
H      62.74449599      81.90911352      89.12914128
H      64.52272844      82.83318969      86.64226145
C      62.53095691      86.05517305      88.35246376
H      63.56463720      87.78427263      88.79276999
C      61.60499102      86.39721351      85.68417021
H      63.23960428      86.84507865      84.51253989
H      60.27651342      87.96946581      85.63125787
H      60.65067923      84.66055503      85.11725231
C      60.13856340      86.13643129      89.96251058
H      60.39556618      86.01359907      92.00341500
H      58.98960981      84.52449474      89.38803378
H      58.88378513      87.75214728      89.72251534
C      65.06507991      83.98403301      93.11835352
O      63.78951463      82.37020674      94.22384342
N      65.46570188      86.23469705      94.25596876
H      66.40678558      87.59152054      93.30165698
C      64.53028735      86.84696838      96.83166573
H      64.13344482      85.01771331      97.68960147
C      66.52772806      88.42866930      98.22439402
H      66.78473084      90.10107709      97.05087398
H      68.31540915      87.40065819      98.17337141
C      65.97025881      89.21290572     101.05520404
H      64.46036749      90.61319292     101.07977048
C      65.22759636      86.77704850     102.42147616
H      64.74949560      87.17389103     104.38679153
H      66.77339248      85.42400446     102.55186728
H      63.57030638      85.86431070     101.60889385
C      68.40233656      90.35619014     102.31187204
H      69.97269913      89.05227899     102.58777208
H      68.01872212      91.30294302     104.10144285
H      69.12988119      91.72813144     100.95882800
C      61.97537738      88.19056378      96.47261773
O      59.97226748      87.08129444      97.12268358
N      62.02451026      90.39776412      95.33689221
H      63.70636668      91.21223616      94.95138805
C      59.70770580      91.83584584      94.68304691
H      58.06175418      90.61697237      94.45627975
C      59.23905368      93.80494066      96.68993625